(set-logic SLHV)
(declare-hvar emp IntHeap)
(declare-locvar nil IntLoc)
(declare-datatype pt_record_0 ((Pt_R_0 (loc IntLoc))))
(declare-datatype pt_record_1 ((Pt_R_1 (data Int))))
(declare-const d13 Int)
(declare-locvar l20 IntLoc)
(declare-hvar ah3 IntHeap)
(declare-hvar AH_2 IntHeap)
(declare-const d12 Int)
(declare-locvar l18 IntLoc)
(declare-hvar h18 IntHeap)
(declare-hvar H_2 IntHeap)
(declare-locvar l19 IntLoc)
(declare-const loc_2 Int)
(declare-hvar H_1 IntHeap)
(declare-hvar AH_1 IntHeap)
(declare-const $r_main0_1 Int)
(declare-const $r_main0_2 Int)
(declare-const $i8_push0_1 Int)
(declare-const $i8_push0_2 Int)
(declare-const $i8_main0_1 Int)
(declare-const $i8_main0_2 Int)
(declare-const $i7_push0_1 Int)
(declare-const $i7_push0_2 Int)
(declare-const $i7_pop0_1 Int)
(declare-const $i7_pop0_2 Int)
(declare-const $i7_main0_1 Int)
(declare-const $i7_main0_2 Int)
(declare-const $i6_push0_1 Int)
(declare-const $i6_push0_2 Int)
(declare-const $i6_pop0_1 Int)
(declare-const $i6_pop0_2 Int)
(declare-const $i6_main0_1 Int)
(declare-const $i6_main0_2 Int)
(declare-const $i5_push0_1 Int)
(declare-const $i5_push0_2 Int)
(declare-const $i5_pop0_1 Int)
(declare-const $i5_pop0_2 Int)
(declare-const $i5_main0_1 Int)
(declare-const $i5_main0_2 Int)
(declare-const $i4_push0_1 Int)
(declare-const $i4_push0_2 Int)
(declare-const $i4_pop0_1 Int)
(declare-const $i4_pop0_2 Int)
(declare-const $i4_main0_1 Int)
(declare-const $i4_main0_2 Int)
(declare-const $i3_push0_1 Int)
(declare-const $i3_push0_2 Int)
(declare-const $i3_pop0_1 Int)
(declare-const $i3_pop0_2 Int)
(declare-const $i3_main0_1 Int)
(declare-const $i3_main0_2 Int)
(declare-const $i2_push0_1 Int)
(declare-const $i2_push0_2 Int)
(declare-const $i2_pop0_1 Int)
(declare-const $i2_pop0_2 Int)
(declare-const $i2_main0_1 Int)
(declare-const $i2_main0_2 Int)
(declare-const $i23_push0_1 Int)
(declare-const $i23_push0_2 Int)
(declare-const $i22_main0_1 Int)
(declare-const $i22_main0_2 Int)
(declare-const $i21_main0_1 Int)
(declare-const $i21_main0_2 Int)
(declare-const $i20_pop0_1 Int)
(declare-const $i20_pop0_2 Int)
(declare-const $i20_main0_1 Int)
(declare-const $i20_main0_2 Int)
(declare-const $i1_push0_1 Int)
(declare-const $i1_push0_2 Int)
(declare-const $i1_pop0_1 Int)
(declare-const $i1_pop0_2 Int)
(declare-const $i1_main0_1 Int)
(declare-const $i1_main0_2 Int)
(declare-const $i19_main0_1 Int)
(declare-const $i19_main0_2 Int)
(declare-const $i17_main0_1 Int)
(declare-const $i17_main0_2 Int)
(declare-const $i16_pop0_1 Int)
(declare-const $i16_pop0_2 Int)
(declare-const $i10_pop0_1 Int)
(declare-const $i10_pop0_2 Int)
(declare-const $i10_main0_1 Int)
(declare-const $i10_main0_2 Int)
(declare-const $i0_push0_1 Int)
(declare-const $i0_push0_2 Int)
(declare-const $i0_pop0_1 Int)
(declare-const $i0_pop0_2 Int)
(declare-const $M.9_1 Int)
(declare-const $M.9_2 Int)
(declare-const $M.6_1 Int)
(declare-const $M.6_2 Int)
(declare-const $M.0_1 Int)
(declare-const $M.0_2 Int)
(declare-locvar $p9_push0_1 IntLoc)
(declare-locvar $p9_push0_2 IntLoc)
(declare-locvar $p9_pop0_1 IntLoc)
(declare-locvar $p9_pop0_2 IntLoc)
(declare-locvar $p9_main0_1 IntLoc)
(declare-locvar $p9_main0_2 IntLoc)
(declare-locvar $p8_pop0_1 IntLoc)
(declare-locvar $p8_pop0_2 IntLoc)
(declare-locvar $p24_push0_1 IntLoc)
(declare-locvar $p24_push0_2 IntLoc)
(declare-locvar $p24_pop0_1 IntLoc)
(declare-locvar $p24_pop0_2 IntLoc)
(declare-locvar $p23_pop0_1 IntLoc)
(declare-locvar $p23_pop0_2 IntLoc)
(declare-locvar $p22_push0_1 IntLoc)
(declare-locvar $p22_push0_2 IntLoc)
(declare-locvar $p22_pop0_1 IntLoc)
(declare-locvar $p22_pop0_2 IntLoc)
(declare-locvar $p21_push0_1 IntLoc)
(declare-locvar $p21_push0_2 IntLoc)
(declare-locvar $p21_pop0_1 IntLoc)
(declare-locvar $p21_pop0_2 IntLoc)
(declare-locvar $p20_push0_1 IntLoc)
(declare-locvar $p20_push0_2 IntLoc)
(declare-locvar $p19_push0_1 IntLoc)
(declare-locvar $p19_push0_2 IntLoc)
(declare-locvar $p19_pop0_1 IntLoc)
(declare-locvar $p19_pop0_2 IntLoc)
(declare-locvar $p18_push0_1 IntLoc)
(declare-locvar $p18_push0_2 IntLoc)
(declare-locvar $p18_pop0_1 IntLoc)
(declare-locvar $p18_pop0_2 IntLoc)
(declare-locvar $p18_main0_1 IntLoc)
(declare-locvar $p18_main0_2 IntLoc)
(declare-locvar $p17_push0_1 IntLoc)
(declare-locvar $p17_push0_2 IntLoc)
(declare-locvar $p17_pop0_1 IntLoc)
(declare-locvar $p17_pop0_2 IntLoc)
(declare-locvar $p16_push0_1 IntLoc)
(declare-locvar $p16_push0_2 IntLoc)
(declare-locvar $p16_main0_1 IntLoc)
(declare-locvar $p16_main0_2 IntLoc)
(declare-locvar $p15_push0_1 IntLoc)
(declare-locvar $p15_push0_2 IntLoc)
(declare-locvar $p15_pop0_1 IntLoc)
(declare-locvar $p15_pop0_2 IntLoc)
(declare-locvar $p15_main0_1 IntLoc)
(declare-locvar $p15_main0_2 IntLoc)
(declare-locvar $p14_push0_1 IntLoc)
(declare-locvar $p14_push0_2 IntLoc)
(declare-locvar $p14_pop0_1 IntLoc)
(declare-locvar $p14_pop0_2 IntLoc)
(declare-locvar $p14_main0_1 IntLoc)
(declare-locvar $p14_main0_2 IntLoc)
(declare-locvar $p13_push0_1 IntLoc)
(declare-locvar $p13_push0_2 IntLoc)
(declare-locvar $p13_pop0_1 IntLoc)
(declare-locvar $p13_pop0_2 IntLoc)
(declare-locvar $p13_main0_1 IntLoc)
(declare-locvar $p13_main0_2 IntLoc)
(declare-locvar $p12_push0_1 IntLoc)
(declare-locvar $p12_push0_2 IntLoc)
(declare-locvar $p12_pop0_1 IntLoc)
(declare-locvar $p12_pop0_2 IntLoc)
(declare-locvar $p12_main0_1 IntLoc)
(declare-locvar $p12_main0_2 IntLoc)
(declare-locvar $p11_push0_1 IntLoc)
(declare-locvar $p11_push0_2 IntLoc)
(declare-locvar $p11_pop0_1 IntLoc)
(declare-locvar $p11_pop0_2 IntLoc)
(declare-locvar $p11_main0_1 IntLoc)
(declare-locvar $p11_main0_2 IntLoc)
(declare-locvar $p10_push0_1 IntLoc)
(declare-locvar $p10_push0_2 IntLoc)
(declare-locvar $p0_main0_1 IntLoc)
(declare-locvar $p0_main0_2 IntLoc)
(declare-locvar $M.8_1 IntLoc)
(declare-locvar $M.8_2 IntLoc)
(declare-locvar $M.7_1 IntLoc)
(declare-locvar $M.7_2 IntLoc)
(declare-locvar $M.5_1 IntLoc)
(declare-locvar $M.5_2 IntLoc)
(declare-locvar $M.4_1 IntLoc)
(declare-locvar $M.4_2 IntLoc)
(declare-locvar $M.10_1 IntLoc)
(declare-locvar $M.10_2 IntLoc)
(declare-locvar $M.1_1 IntLoc)
(declare-locvar $M.1_2 IntLoc)
(declare-const loc_1 Int)
(declare-const $i4_main01_2 Int)
(declare-const $i3_main01_2 Int)
(declare-const $i2_main02_2 Int)
(declare-hvar H_0 IntHeap)
(declare-hvar AH_0 IntHeap)
(declare-const $r_main0_0 Int)
(declare-const $i8_push0_0 Int)
(declare-const $i8_main0_0 Int)
(declare-const $i7_push0_0 Int)
(declare-const $i7_pop0_0 Int)
(declare-const $i7_main0_0 Int)
(declare-const $i6_push0_0 Int)
(declare-const $i6_pop0_0 Int)
(declare-const $i6_main0_0 Int)
(declare-const $i5_push0_0 Int)
(declare-const $i5_pop0_0 Int)
(declare-const $i5_main0_0 Int)
(declare-const $i4_push0_0 Int)
(declare-const $i4_pop0_0 Int)
(declare-const $i4_main0_0 Int)
(declare-const $i3_push0_0 Int)
(declare-const $i3_pop0_0 Int)
(declare-const $i3_main0_0 Int)
(declare-const $i2_push0_0 Int)
(declare-const $i2_pop0_0 Int)
(declare-const $i23_push0_0 Int)
(declare-const $i22_main0_0 Int)
(declare-const $i21_main0_0 Int)
(declare-const $i20_pop0_0 Int)
(declare-const $i20_main0_0 Int)
(declare-const $i1_push0_0 Int)
(declare-const $i1_pop0_0 Int)
(declare-const $i19_main0_0 Int)
(declare-const $i17_main0_0 Int)
(declare-const $i16_pop0_0 Int)
(declare-const $i10_pop0_0 Int)
(declare-const $i10_main0_0 Int)
(declare-const $i0_push0_0 Int)
(declare-const $i0_pop0_0 Int)
(declare-const $M.9_0 Int)
(declare-const $M.6_0 Int)
(declare-const $M.0_0 Int)
(declare-locvar $p9_push0_0 IntLoc)
(declare-locvar $p9_pop0_0 IntLoc)
(declare-locvar $p9_main0_0 IntLoc)
(declare-locvar $p8_pop0_0 IntLoc)
(declare-locvar $p24_push0_0 IntLoc)
(declare-locvar $p24_pop0_0 IntLoc)
(declare-locvar $p23_pop0_0 IntLoc)
(declare-locvar $p22_push0_0 IntLoc)
(declare-locvar $p22_pop0_0 IntLoc)
(declare-locvar $p21_push0_0 IntLoc)
(declare-locvar $p21_pop0_0 IntLoc)
(declare-locvar $p20_push0_0 IntLoc)
(declare-locvar $p19_push0_0 IntLoc)
(declare-locvar $p19_pop0_0 IntLoc)
(declare-locvar $p18_push0_0 IntLoc)
(declare-locvar $p18_pop0_0 IntLoc)
(declare-locvar $p18_main0_0 IntLoc)
(declare-locvar $p17_push0_0 IntLoc)
(declare-locvar $p17_pop0_0 IntLoc)
(declare-locvar $p16_push0_0 IntLoc)
(declare-locvar $p16_main0_0 IntLoc)
(declare-locvar $p15_push0_0 IntLoc)
(declare-locvar $p15_pop0_0 IntLoc)
(declare-locvar $p15_main0_0 IntLoc)
(declare-locvar $p14_push0_0 IntLoc)
(declare-locvar $p14_pop0_0 IntLoc)
(declare-locvar $p14_main0_0 IntLoc)
(declare-locvar $p13_push0_0 IntLoc)
(declare-locvar $p13_pop0_0 IntLoc)
(declare-locvar $p13_main0_0 IntLoc)
(declare-locvar $p12_push0_0 IntLoc)
(declare-locvar $p12_pop0_0 IntLoc)
(declare-locvar $p12_main0_0 IntLoc)
(declare-locvar $p11_push0_0 IntLoc)
(declare-locvar $p11_pop0_0 IntLoc)
(declare-locvar $p11_main0_0 IntLoc)
(declare-locvar $p10_push0_0 IntLoc)
(declare-locvar $M.8_0 IntLoc)
(declare-locvar $M.7_0 IntLoc)
(declare-locvar $M.5_0 IntLoc)
(declare-locvar $M.4_0 IntLoc)
(declare-locvar $M.10_0 IntLoc)
(declare-locvar $M.1_0 IntLoc)
(declare-locvar $p0_main01_1 IntLoc)
(declare-const $i2_main01_1 Int)
(declare-const $i1_main01_1 Int)
(declare-const loc_0 Int)
(assert
 (let (($x1888 (or (= H_2 (uplus h18 (pt l18 (Pt_R_0 l19)))) (= H_2 (uplus h18 (pt l18 (Pt_R_1 d12)))))))
 (let (($x1897 (and (and false $x1888) (= AH_2 (uplus ah3 (pt l20 (Pt_R_1 d13)))))))
 (let (($x1803 (= loc_2 4)))
 (let (($x1761 (= H_2 H_1)))
 (let (($x1762 (and (and true (= AH_2 AH_1)) $x1761)))
 (let (($x1754 (= $r_main0_2 $r_main0_1)))
 (let (($x1751 (= $i8_push0_2 $i8_push0_1)))
 (let (($x1748 (= $i8_main0_2 $i8_main0_1)))
 (let (($x1745 (= $i7_push0_2 $i7_push0_1)))
 (let (($x1742 (= $i7_pop0_2 $i7_pop0_1)))
 (let (($x1739 (= $i7_main0_2 $i7_main0_1)))
 (let (($x1736 (= $i6_push0_2 $i6_push0_1)))
 (let (($x1733 (= $i6_pop0_2 $i6_pop0_1)))
 (let (($x1730 (= $i6_main0_2 $i6_main0_1)))
 (let (($x1727 (= $i5_push0_2 $i5_push0_1)))
 (let (($x1724 (= $i5_pop0_2 $i5_pop0_1)))
 (let (($x1721 (= $i5_main0_2 $i5_main0_1)))
 (let (($x1718 (= $i4_push0_2 $i4_push0_1)))
 (let (($x1715 (= $i4_pop0_2 $i4_pop0_1)))
 (let (($x1784 (= $i4_main0_2 $i4_main0_1)))
 (let (($x1712 (= $i3_push0_2 $i3_push0_1)))
 (let (($x1709 (= $i3_pop0_2 $i3_pop0_1)))
 (let (($x1780 (= $i3_main0_2 $i3_main0_1)))
 (let (($x1706 (= $i2_push0_2 $i2_push0_1)))
 (let (($x1703 (= $i2_pop0_2 $i2_pop0_1)))
 (let (($x1776 (= $i2_main0_2 $i2_main0_1)))
 (let (($x1700 (= $i23_push0_2 $i23_push0_1)))
 (let (($x1697 (= $i22_main0_2 $i22_main0_1)))
 (let (($x1694 (= $i21_main0_2 $i21_main0_1)))
 (let (($x1691 (= $i20_pop0_2 $i20_pop0_1)))
 (let (($x1688 (= $i20_main0_2 $i20_main0_1)))
 (let (($x1685 (= $i1_push0_2 $i1_push0_1)))
 (let (($x1682 (= $i1_pop0_2 $i1_pop0_1)))
 (let (($x1679 (= $i1_main0_2 $i1_main0_1)))
 (let (($x1676 (= $i19_main0_2 $i19_main0_1)))
 (let (($x1673 (= $i17_main0_2 $i17_main0_1)))
 (let (($x1670 (= $i16_pop0_2 $i16_pop0_1)))
 (let (($x1667 (= $i10_pop0_2 $i10_pop0_1)))
 (let (($x1664 (= $i10_main0_2 $i10_main0_1)))
 (let (($x1661 (= $i0_push0_2 $i0_push0_1)))
 (let (($x1658 (= $i0_pop0_2 $i0_pop0_1)))
 (let (($x1655 (= $M.9_2 $M.9_1)))
 (let (($x1656 (and (and (and true (= $M.0_2 $M.0_1)) (= $M.6_2 $M.6_1)) $x1655)))
 (let (($x1674 (and (and (and (and (and (and $x1656 $x1658) $x1661) $x1664) $x1667) $x1670) $x1673)))
 (let (($x1692 (and (and (and (and (and (and $x1674 $x1676) $x1679) $x1682) $x1685) $x1688) $x1691)))
 (let (($x1701 (and (and (and $x1692 $x1694) $x1697) $x1700)))
 (let (($x1783 (and (and (and (and (and (and $x1701 $x1776) $x1703) $x1706) $x1780) $x1709) $x1712)))
 (let (($x1790 (and (and (and (and (and (and $x1783 $x1784) $x1715) $x1718) $x1721) $x1724) $x1727)))
 (let (($x1796 (and (and (and (and (and (and $x1790 $x1730) $x1733) $x1736) $x1739) $x1742) $x1745)))
 (let (($x1799 (and (and (and $x1796 $x1748) $x1751) $x1754)))
 (let (($x1645 (= $p9_push0_2 $p9_push0_1)))
 (let (($x1642 (= $p9_pop0_2 $p9_pop0_1)))
 (let (($x1639 (= $p9_main0_2 $p9_main0_1)))
 (let (($x1636 (= $p8_pop0_2 $p8_pop0_1)))
 (let (($x1633 (= $p24_push0_2 $p24_push0_1)))
 (let (($x1630 (= $p24_pop0_2 $p24_pop0_1)))
 (let (($x1627 (= $p23_pop0_2 $p23_pop0_1)))
 (let (($x1624 (= $p22_push0_2 $p22_push0_1)))
 (let (($x1621 (= $p22_pop0_2 $p22_pop0_1)))
 (let (($x1618 (= $p21_push0_2 $p21_push0_1)))
 (let (($x1615 (= $p21_pop0_2 $p21_pop0_1)))
 (let (($x1612 (= $p20_push0_2 $p20_push0_1)))
 (let (($x1609 (= $p19_push0_2 $p19_push0_1)))
 (let (($x1606 (= $p19_pop0_2 $p19_pop0_1)))
 (let (($x1603 (= $p18_push0_2 $p18_push0_1)))
 (let (($x1600 (= $p18_pop0_2 $p18_pop0_1)))
 (let (($x1597 (= $p18_main0_2 $p18_main0_1)))
 (let (($x1594 (= $p17_push0_2 $p17_push0_1)))
 (let (($x1591 (= $p17_pop0_2 $p17_pop0_1)))
 (let (($x1588 (= $p16_push0_2 $p16_push0_1)))
 (let (($x1585 (= $p16_main0_2 $p16_main0_1)))
 (let (($x1582 (= $p15_push0_2 $p15_push0_1)))
 (let (($x1579 (= $p15_pop0_2 $p15_pop0_1)))
 (let (($x1576 (= $p15_main0_2 $p15_main0_1)))
 (let (($x1573 (= $p14_push0_2 $p14_push0_1)))
 (let (($x1570 (= $p14_pop0_2 $p14_pop0_1)))
 (let (($x1567 (= $p14_main0_2 $p14_main0_1)))
 (let (($x1564 (= $p13_push0_2 $p13_push0_1)))
 (let (($x1561 (= $p13_pop0_2 $p13_pop0_1)))
 (let (($x1558 (= $p13_main0_2 $p13_main0_1)))
 (let (($x1555 (= $p12_push0_2 $p12_push0_1)))
 (let (($x1552 (= $p12_pop0_2 $p12_pop0_1)))
 (let (($x1549 (= $p12_main0_2 $p12_main0_1)))
 (let (($x1546 (= $p11_push0_2 $p11_push0_1)))
 (let (($x1543 (= $p11_pop0_2 $p11_pop0_1)))
 (let (($x1540 (= $p11_main0_2 $p11_main0_1)))
 (let (($x1537 (= $p10_push0_2 $p10_push0_1)))
 (let (($x1534 (= $p0_main0_2 $p0_main0_1)))
 (let (($x1531 (= $M.8_2 $M.8_1)))
 (let (($x1528 (= $M.7_2 $M.7_1)))
 (let (($x1525 (= $M.5_2 $M.5_1)))
 (let (($x1522 (= $M.4_2 $M.4_1)))
 (let (($x1523 (and (and (and true (= $M.1_2 $M.1_1)) (= $M.10_2 $M.10_1)) $x1522)))
 (let (($x1541 (and (and (and (and (and (and $x1523 $x1525) $x1528) $x1531) $x1534) $x1537) $x1540)))
 (let (($x1559 (and (and (and (and (and (and $x1541 $x1543) $x1546) $x1549) $x1552) $x1555) $x1558)))
 (let (($x1577 (and (and (and (and (and (and $x1559 $x1561) $x1564) $x1567) $x1570) $x1573) $x1576)))
 (let (($x1595 (and (and (and (and (and (and $x1577 $x1579) $x1582) $x1585) $x1588) $x1591) $x1594)))
 (let (($x1613 (and (and (and (and (and (and $x1595 $x1597) $x1600) $x1603) $x1606) $x1609) $x1612)))
 (let (($x1631 (and (and (and (and (and (and $x1613 $x1615) $x1618) $x1621) $x1624) $x1627) $x1630)))
 (let (($x1646 (and (and (and (and (and $x1631 $x1633) $x1636) $x1639) $x1642) $x1645)))
 (let (($x1773 (and true true)))
 (let (($x1488 (= $i1_main0_1 1)))
 (let (($x1481 (= loc_1 2)))
 (let (($x1771 (and $x1481 $x1488)))
 (let (($x1768 (= loc_2 3)))
 (let (($x1719 (and (and (and (and (and (and $x1701 $x1703) $x1706) $x1709) $x1712) $x1715) $x1718)))
 (let (($x1737 (and (and (and (and (and (and $x1719 $x1721) $x1724) $x1727) $x1730) $x1733) $x1736)))
 (let (($x1755 (and (and (and (and (and (and $x1737 $x1739) $x1742) $x1745) $x1748) $x1751) $x1754)))
 (let (($x1511 (= $i4_main0_2 $i4_main01_2)))
 (let (($x1512 (and (and (= $i2_main0_2 $i2_main02_2) (= $i3_main0_2 $i3_main01_2)) $x1511)))
 (let (($x1513 (and $x1512 true)))
 (let (($x1491 (= $i2_main02_2 1)))
 (let (($x1499 (or (and (and (distinct 1 $i3_main01_2) true) (= $i4_main01_2 1)) (and (not (and (distinct 1 $i3_main01_2) true)) (= $i4_main01_2 0)))))
 (let (($x1501 (= $i3_main01_2 $M.0_1)))
 (let (($x1866 (and (and (and (and (and (and $x1501 $x1499) $x1491) $x1513) $x1646) $x1755) $x1762)))
 (let (($x1490 (and $x1481 (not $x1488))))
 (let (($x1874 (and (=> $x1490 (and $x1866 $x1768)) (=> $x1771 (and (and (and (and $x1773 $x1646) $x1799) $x1762) $x1803)))))
 (let (($x1474 (= H_1 H_0)))
 (let (($x1475 (and (and true (= AH_1 AH_0)) $x1474)))
 (let (($x1467 (= $r_main0_1 $r_main0_0)))
 (let (($x1463 (= $i8_push0_1 $i8_push0_0)))
 (let (($x1459 (= $i8_main0_1 $i8_main0_0)))
 (let (($x1455 (= $i7_push0_1 $i7_push0_0)))
 (let (($x1451 (= $i7_pop0_1 $i7_pop0_0)))
 (let (($x1447 (= $i7_main0_1 $i7_main0_0)))
 (let (($x1443 (= $i6_push0_1 $i6_push0_0)))
 (let (($x1439 (= $i6_pop0_1 $i6_pop0_0)))
 (let (($x1435 (= $i6_main0_1 $i6_main0_0)))
 (let (($x1431 (= $i5_push0_1 $i5_push0_0)))
 (let (($x1427 (= $i5_pop0_1 $i5_pop0_0)))
 (let (($x1423 (= $i5_main0_1 $i5_main0_0)))
 (let (($x1419 (= $i4_push0_1 $i4_push0_0)))
 (let (($x1415 (= $i4_pop0_1 $i4_pop0_0)))
 (let (($x1411 (= $i4_main0_1 $i4_main0_0)))
 (let (($x1407 (= $i3_push0_1 $i3_push0_0)))
 (let (($x1403 (= $i3_pop0_1 $i3_pop0_0)))
 (let (($x1399 (= $i3_main0_1 $i3_main0_0)))
 (let (($x1395 (= $i2_push0_1 $i2_push0_0)))
 (let (($x1391 (= $i2_pop0_1 $i2_pop0_0)))
 (let (($x1387 (= $i23_push0_1 $i23_push0_0)))
 (let (($x1383 (= $i22_main0_1 $i22_main0_0)))
 (let (($x1379 (= $i21_main0_1 $i21_main0_0)))
 (let (($x1375 (= $i20_pop0_1 $i20_pop0_0)))
 (let (($x1371 (= $i20_main0_1 $i20_main0_0)))
 (let (($x1367 (= $i1_push0_1 $i1_push0_0)))
 (let (($x1363 (= $i1_pop0_1 $i1_pop0_0)))
 (let (($x1359 (= $i19_main0_1 $i19_main0_0)))
 (let (($x1355 (= $i17_main0_1 $i17_main0_0)))
 (let (($x1351 (= $i16_pop0_1 $i16_pop0_0)))
 (let (($x1347 (= $i10_pop0_1 $i10_pop0_0)))
 (let (($x1343 (= $i10_main0_1 $i10_main0_0)))
 (let (($x1339 (= $i0_push0_1 $i0_push0_0)))
 (let (($x1335 (= $i0_pop0_1 $i0_pop0_0)))
 (let (($x1331 (= $M.9_1 $M.9_0)))
 (let (($x1332 (and (and (and true (= $M.0_1 $M.0_0)) (= $M.6_1 $M.6_0)) $x1331)))
 (let (($x1356 (and (and (and (and (and (and $x1332 $x1335) $x1339) $x1343) $x1347) $x1351) $x1355)))
 (let (($x1380 (and (and (and (and (and (and $x1356 $x1359) $x1363) $x1367) $x1371) $x1375) $x1379)))
 (let (($x1404 (and (and (and (and (and (and $x1380 $x1383) $x1387) $x1391) $x1395) $x1399) $x1403)))
 (let (($x1428 (and (and (and (and (and (and $x1404 $x1407) $x1411) $x1415) $x1419) $x1423) $x1427)))
 (let (($x1452 (and (and (and (and (and (and $x1428 $x1431) $x1435) $x1439) $x1443) $x1447) $x1451)))
 (let (($x1468 (and (and (and (and $x1452 $x1455) $x1459) $x1463) $x1467)))
 (let (($x1318 (= $p9_push0_1 $p9_push0_0)))
 (let (($x1314 (= $p9_pop0_1 $p9_pop0_0)))
 (let (($x1310 (= $p9_main0_1 $p9_main0_0)))
 (let (($x1306 (= $p8_pop0_1 $p8_pop0_0)))
 (let (($x1302 (= $p24_push0_1 $p24_push0_0)))
 (let (($x1298 (= $p24_pop0_1 $p24_pop0_0)))
 (let (($x1294 (= $p23_pop0_1 $p23_pop0_0)))
 (let (($x1290 (= $p22_push0_1 $p22_push0_0)))
 (let (($x1286 (= $p22_pop0_1 $p22_pop0_0)))
 (let (($x1282 (= $p21_push0_1 $p21_push0_0)))
 (let (($x1278 (= $p21_pop0_1 $p21_pop0_0)))
 (let (($x1274 (= $p20_push0_1 $p20_push0_0)))
 (let (($x1270 (= $p19_push0_1 $p19_push0_0)))
 (let (($x1266 (= $p19_pop0_1 $p19_pop0_0)))
 (let (($x1262 (= $p18_push0_1 $p18_push0_0)))
 (let (($x1258 (= $p18_pop0_1 $p18_pop0_0)))
 (let (($x1254 (= $p18_main0_1 $p18_main0_0)))
 (let (($x1250 (= $p17_push0_1 $p17_push0_0)))
 (let (($x1246 (= $p17_pop0_1 $p17_pop0_0)))
 (let (($x1242 (= $p16_push0_1 $p16_push0_0)))
 (let (($x1238 (= $p16_main0_1 $p16_main0_0)))
 (let (($x1234 (= $p15_push0_1 $p15_push0_0)))
 (let (($x1230 (= $p15_pop0_1 $p15_pop0_0)))
 (let (($x1226 (= $p15_main0_1 $p15_main0_0)))
 (let (($x1222 (= $p14_push0_1 $p14_push0_0)))
 (let (($x1218 (= $p14_pop0_1 $p14_pop0_0)))
 (let (($x1214 (= $p14_main0_1 $p14_main0_0)))
 (let (($x1210 (= $p13_push0_1 $p13_push0_0)))
 (let (($x1206 (= $p13_pop0_1 $p13_pop0_0)))
 (let (($x1202 (= $p13_main0_1 $p13_main0_0)))
 (let (($x1198 (= $p12_push0_1 $p12_push0_0)))
 (let (($x1194 (= $p12_pop0_1 $p12_pop0_0)))
 (let (($x1190 (= $p12_main0_1 $p12_main0_0)))
 (let (($x1186 (= $p11_push0_1 $p11_push0_0)))
 (let (($x1182 (= $p11_pop0_1 $p11_pop0_0)))
 (let (($x1178 (= $p11_main0_1 $p11_main0_0)))
 (let (($x1174 (= $p10_push0_1 $p10_push0_0)))
 (let (($x1170 (= $M.8_1 $M.8_0)))
 (let (($x1166 (= $M.7_1 $M.7_0)))
 (let (($x1162 (= $M.5_1 $M.5_0)))
 (let (($x1158 (= $M.4_1 $M.4_0)))
 (let (($x1159 (and (and (and true (= $M.1_1 $M.1_0)) (= $M.10_1 $M.10_0)) $x1158)))
 (let (($x1183 (and (and (and (and (and (and $x1159 $x1162) $x1166) $x1170) $x1174) $x1178) $x1182)))
 (let (($x1207 (and (and (and (and (and (and $x1183 $x1186) $x1190) $x1194) $x1198) $x1202) $x1206)))
 (let (($x1231 (and (and (and (and (and (and $x1207 $x1210) $x1214) $x1218) $x1222) $x1226) $x1230)))
 (let (($x1255 (and (and (and (and (and (and $x1231 $x1234) $x1238) $x1242) $x1246) $x1250) $x1254)))
 (let (($x1279 (and (and (and (and (and (and $x1255 $x1258) $x1262) $x1266) $x1270) $x1274) $x1278)))
 (let (($x1303 (and (and (and (and (and (and $x1279 $x1282) $x1286) $x1290) $x1294) $x1298) $x1302)))
 (let (($x1319 (and (and (and (and $x1303 $x1306) $x1310) $x1314) $x1318)))
 (let (($x1145 (= $p0_main0_1 $p0_main01_1)))
 (let (($x1146 (and (and (= $i1_main0_1 $i1_main01_1) (= $i2_main0_1 $i2_main01_1)) $x1145)))
 (let (($x1147 (and $x1146 true)))
 (let (($x1125 (= $i2_main01_1 1)))
 (let (($x1133 (or (and (and (distinct $p0_main01_1 nil) true) (= $i1_main01_1 1)) (and (not (and (distinct $p0_main01_1 nil) true)) (= $i1_main01_1 0)))))
 (let (($x1135 (= $p0_main01_1 $M.4_0)))
 (let (($x1857 (and (and (and (and (and (and $x1135 $x1133) $x1125) $x1147) $x1319) $x1468) $x1475)))
 (let (($x1115 (= loc_0 1)))
 (let (($x1117 (and (and (= H_0 emp) (= AH_0 emp)) $x1115)))
 (and (and (and $x1117 (=> $x1115 (and $x1857 $x1481))) $x1874) $x1897)))))))))))))))))))))))))))))))))))))))))))))))))))))))))))))))))))))))))))))))))))))))))))))))))))))))))))))))))))))))))))))))))))))))))))))))))))))))))))))))))))))))))))))))))))))))))))))))))))))))))))))))))))))))))))))
(check-sat)
